66782195406330725245011,9,1,2,011,12,1,2,02,7,1,2,010,7,1,2,012,15,1,2,03,13,1,2,08,4,1,2,06,8,1,2,013,1,1,2,015,14,1,2,07,12,1,2,08,11,1,2,02,15,1,2,05,2,1,2,02,15,1,2,07,14,1,2,012,9,1,2,05,1,1,2,06,12,1,2,01,13,1,2,08,15,1,2,012,5,1,2,012,11,1,2,012,13,1,2,014,3,1,2,07,6,1,2,06,2,1,2,015,8,1,2,07,2,1,2,05,5,1,2,012,12,1,2,05,9,1,2,014,7,1,2,09,9,1,2,011,2,1,2,012,11,1,2,014,15,1,2,012,14,1,2,014,8,1,2,013,12,1,2,011,6,1,2,012,5,1,2,01,6,1,2,013,6,1,2,04,14,1,2,03,12,1,2,011,1,1,2,02,9,1,2,014,6,1,2,08,5,1,2,0